NAME Model5
ROWS
 N  OBJ
 E  c0      
 E  c1      
 E  c2      
 E  c3      
 E  c4      
 E  c5      
 E  c6      
 E  c7      
 E  c8      
 L  c9      
 L  c10     
 L  c11     
 L  c12     
 L  c13     
 L  c14     
 L  c15     
 L  c16     
 L  c17     
 L  c18     
 L  c19     
 L  c20     
 L  c21     
 L  c22     
 L  c23     
 L  c24     
 L  c25     
 L  c26     
 G  c27     
 G  c28     
 G  c29     
 G  c30     
 G  c31     
 G  c32     
 G  c33     
 G  c34     
 G  c35     
 G  c36     
 G  c37     
 G  c38     
 G  c39     
 G  c40     
 G  c41     
 G  c42     
 G  c43     
 G  c44     
 G  c45     
 G  c46     
 G  c47     
 G  c48     
 G  c49     
 G  c50     
 G  c51     
 G  c52     
 G  c53     
 G  c54     
 G  c55     
 G  c56     
 G  c57     
 G  c58     
 G  c59     
 G  c60     
 G  c61     
 G  c62     
 G  c63     
 G  c64     
 G  c65     
 G  c66     
 G  c67     
 G  c68     
 G  c69     
 G  c70     
 G  c71     
 G  c72     
 G  c73     
 G  c74     
 G  c75     
 G  c76     
 G  c77     
 G  c78     
 G  c79     
 G  c80     
 G  c81     
 G  c82     
 G  c83     
 G  c84     
 G  c85     
 G  c86     
 G  c87     
 G  c88     
 G  c89     
 G  c90     
 G  c91     
 G  c92     
 G  c93     
 G  c94     
 G  c95     
 G  c96     
 G  c97     
 G  c98     
 G  c99     
 G  c100    
 G  c101    
 G  c102    
 G  c103    
 G  c104    
 G  c105    
 G  c106    
 G  c107    
 G  c108    
 G  c109    
 G  c110    
 G  c111    
 G  c112    
 G  c113    
 G  c114    
 G  c115    
 G  c116    
 G  c117    
 G  c118    
 G  c119    
 G  c120    
 G  c121    
 G  c122    
 G  c123    
 G  c124    
 G  c125    
 G  c126    
 G  c127    
 G  c128    
 G  c129    
 G  c130    
 G  c131    
 G  c132    
 G  c133    
 G  c134    
 G  c135    
 G  c136    
 G  c137    
 G  c138    
 G  c139    
 G  c140    
 G  c141    
 G  c142    
 G  c143    
 G  c144    
 G  c145    
 G  c146    
 G  c147    
 G  c148    
 G  c149    
 G  c150    
 G  c151    
 G  c152    
 G  c153    
 G  c154    
 G  c155    
 G  c156    
 G  c157    
 G  c158    
 G  c159    
 G  c160    
 G  c161    
 G  c162    
 G  c163    
 G  c164    
 G  c165    
COLUMNS
    MARKER    'MARKER'                 'INTORG'
    y[0,0,2]  c0        1
    y[0,0,2]  c9        -1000000
    y[0,0,2]  c29       -1000000
    y[0,0,2]  c30       -1000000
    y[0,0,2]  c31       -1000000
    y[0,0,2]  c32       -1000000
    y[0,0,2]  c35       -1000000
    y[0,0,2]  c36       -1000000
    y[0,0,2]  c39       -1000000
    y[0,0,2]  c40       -1000000
    y[0,0,2]  c65       -1000000
    y[0,0,2]  c66       -1000000
    y[0,0,2]  c124      -1
    y[0,0,2]  c165      -2
    y[0,0,3]  c0        1
    y[0,0,3]  c10       -1000000
    y[0,0,3]  c27       -1000000
    y[0,0,3]  c28       -1000000
    y[0,0,3]  c33       -1000000
    y[0,0,3]  c34       -1000000
    y[0,0,3]  c37       -1000000
    y[0,0,3]  c38       -1000000
    y[0,0,3]  c41       -1000000
    y[0,0,3]  c42       -1000000
    y[0,0,3]  c43       -1000000
    y[0,0,3]  c44       -1000000
    y[0,0,3]  c45       -1000000
    y[0,0,3]  c46       -1000000
    y[0,0,3]  c126      -1
    y[0,0,3]  c165      -2
    y[0,1,1]  c1        1
    y[0,1,1]  c11       -1000000
    y[0,1,1]  c47       -1000000
    y[0,1,1]  c48       -1000000
    y[0,1,1]  c51       -1000000
    y[0,1,1]  c52       -1000000
    y[0,1,1]  c53       -1000000
    y[0,1,1]  c54       -1000000
    y[0,1,1]  c57       -1000000
    y[0,1,1]  c58       -1000000
    y[0,1,1]  c61       -1000000
    y[0,1,1]  c62       -1000000
    y[0,1,1]  c67       -1000000
    y[0,1,1]  c68       -1000000
    y[0,1,1]  c159      -5
    y[0,1,3]  c1        1
    y[0,1,3]  c12       -1000000
    y[0,1,3]  c27       -1000000
    y[0,1,3]  c28       -1000000
    y[0,1,3]  c45       -1000000
    y[0,1,3]  c46       -1000000
    y[0,1,3]  c49       -1000000
    y[0,1,3]  c50       -1000000
    y[0,1,3]  c55       -1000000
    y[0,1,3]  c56       -1000000
    y[0,1,3]  c59       -1000000
    y[0,1,3]  c60       -1000000
    y[0,1,3]  c63       -1000000
    y[0,1,3]  c64       -1000000
    y[0,1,3]  c159      -4
    y[0,2,1]  c2        1
    y[0,2,1]  c13       -1000000
    y[0,2,1]  c47       -1000000
    y[0,2,1]  c48       -1000000
    y[0,2,1]  c67       -1000000
    y[0,2,1]  c68       -1000000
    y[0,2,1]  c71       -1000000
    y[0,2,1]  c72       -1000000
    y[0,2,1]  c75       -1000000
    y[0,2,1]  c76       -1000000
    y[0,2,1]  c77       -1000000
    y[0,2,1]  c78       -1000000
    y[0,2,1]  c81       -1000000
    y[0,2,1]  c82       -1000000
    y[0,2,1]  c132      -1
    y[0,2,1]  c160      -4
    y[0,2,2]  c2        1
    y[0,2,2]  c14       -1000000
    y[0,2,2]  c29       -1000000
    y[0,2,2]  c30       -1000000
    y[0,2,2]  c65       -1000000
    y[0,2,2]  c66       -1000000
    y[0,2,2]  c69       -1000000
    y[0,2,2]  c70       -1000000
    y[0,2,2]  c73       -1000000
    y[0,2,2]  c74       -1000000
    y[0,2,2]  c79       -1000000
    y[0,2,2]  c80       -1000000
    y[0,2,2]  c134      -1
    y[0,2,2]  c160      -2
    y[1,0,2]  c3        1
    y[1,0,2]  c15       -1000000
    y[1,0,2]  c31       -1000000
    y[1,0,2]  c32       -1000000
    y[1,0,2]  c69       -1000000
    y[1,0,2]  c70       -1000000
    y[1,0,2]  c83       -1000000
    y[1,0,2]  c84       -1000000
    y[1,0,2]  c87       -1000000
    y[1,0,2]  c88       -1000000
    y[1,0,2]  c93       -1000000
    y[1,0,2]  c94       -1000000
    y[1,0,2]  c136      -2
    y[1,0,2]  c165      -5
    y[1,0,3]  c3        1
    y[1,0,3]  c16       -1000000
    y[1,0,3]  c33       -1000000
    y[1,0,3]  c34       -1000000
    y[1,0,3]  c49       -1000000
    y[1,0,3]  c50       -1000000
    y[1,0,3]  c85       -1000000
    y[1,0,3]  c86       -1000000
    y[1,0,3]  c89       -1000000
    y[1,0,3]  c90       -1000000
    y[1,0,3]  c91       -1000000
    y[1,0,3]  c92       -1000000
    y[1,0,3]  c103      -1000000
    y[1,0,3]  c104      -1000000
    y[1,0,3]  c138      -2
    y[1,0,3]  c165      -4
    y[1,1,1]  c4        1
    y[1,1,1]  c17       -1000000
    y[1,1,1]  c51       -1000000
    y[1,1,1]  c52       -1000000
    y[1,1,1]  c71       -1000000
    y[1,1,1]  c72       -1000000
    y[1,1,1]  c95       -1000000
    y[1,1,1]  c96       -1000000
    y[1,1,1]  c97       -1000000
    y[1,1,1]  c98       -1000000
    y[1,1,1]  c101      -1000000
    y[1,1,1]  c102      -1000000
    y[1,1,1]  c105      -1000000
    y[1,1,1]  c106      -1000000
    y[1,1,1]  c140      -2
    y[1,1,1]  c161      -3
    y[1,1,2]  c4        1
    y[1,1,2]  c18       -1000000
    y[1,1,2]  c35       -1000000
    y[1,1,2]  c36       -1000000
    y[1,1,2]  c73       -1000000
    y[1,1,2]  c74       -1000000
    y[1,1,2]  c83       -1000000
    y[1,1,2]  c84       -1000000
    y[1,1,2]  c93       -1000000
    y[1,1,2]  c94       -1000000
    y[1,1,2]  c99       -1000000
    y[1,1,2]  c100      -1000000
    y[1,1,2]  c142      -2
    y[1,1,2]  c161      -5
    y[1,2,1]  c5        1
    y[1,2,1]  c19       -1000000
    y[1,2,1]  c53       -1000000
    y[1,2,1]  c54       -1000000
    y[1,2,1]  c75       -1000000
    y[1,2,1]  c76       -1000000
    y[1,2,1]  c95       -1000000
    y[1,2,1]  c96       -1000000
    y[1,2,1]  c105      -1000000
    y[1,2,1]  c106      -1000000
    y[1,2,1]  c107      -1000000
    y[1,2,1]  c108      -1000000
    y[1,2,1]  c111      -1000000
    y[1,2,1]  c112      -1000000
    y[1,2,1]  c144      -1
    y[1,2,1]  c162      -5
    y[1,2,3]  c5        1
    y[1,2,3]  c20       -1000000
    y[1,2,3]  c37       -1000000
    y[1,2,3]  c38       -1000000
    y[1,2,3]  c55       -1000000
    y[1,2,3]  c56       -1000000
    y[1,2,3]  c85       -1000000
    y[1,2,3]  c86       -1000000
    y[1,2,3]  c103      -1000000
    y[1,2,3]  c104      -1000000
    y[1,2,3]  c109      -1000000
    y[1,2,3]  c110      -1000000
    y[1,2,3]  c113      -1000000
    y[1,2,3]  c114      -1000000
    y[1,2,3]  c146      -1
    y[1,2,3]  c162      -4
    y[2,0,0]  c6        1
    y[2,0,0]  c21       -1000000
    y[2,0,0]  c165      -2
    y[2,0,1]  c6        1
    y[2,0,1]  c22       -1000000
    y[2,0,1]  c57       -1000000
    y[2,0,1]  c58       -1000000
    y[2,0,1]  c77       -1000000
    y[2,0,1]  c78       -1000000
    y[2,0,1]  c97       -1000000
    y[2,0,1]  c98       -1000000
    y[2,0,1]  c107      -1000000
    y[2,0,1]  c108      -1000000
    y[2,0,1]  c115      -1000000
    y[2,0,1]  c116      -1000000
    y[2,0,1]  c119      -1000000
    y[2,0,1]  c120      -1000000
    y[2,0,1]  c165      -2
    y[2,1,2]  c7        1
    y[2,1,2]  c23       -1000000
    y[2,1,2]  c39       -1000000
    y[2,1,2]  c40       -1000000
    y[2,1,2]  c79       -1000000
    y[2,1,2]  c80       -1000000
    y[2,1,2]  c87       -1000000
    y[2,1,2]  c88       -1000000
    y[2,1,2]  c99       -1000000
    y[2,1,2]  c100      -1000000
    y[2,1,2]  c152      -3
    y[2,1,2]  c163      -2
    y[2,1,3]  c7        1
    y[2,1,3]  c24       -1000000
    y[2,1,3]  c41       -1000000
    y[2,1,3]  c42       -1000000
    y[2,1,3]  c59       -1000000
    y[2,1,3]  c60       -1000000
    y[2,1,3]  c89       -1000000
    y[2,1,3]  c90       -1000000
    y[2,1,3]  c109      -1000000
    y[2,1,3]  c110      -1000000
    y[2,1,3]  c117      -1000000
    y[2,1,3]  c118      -1000000
    y[2,1,3]  c121      -1000000
    y[2,1,3]  c122      -1000000
    y[2,1,3]  c154      -3
    y[2,1,3]  c163      -5
    y[2,2,1]  c8        1
    y[2,2,1]  c25       -1000000
    y[2,2,1]  c61       -1000000
    y[2,2,1]  c62       -1000000
    y[2,2,1]  c81       -1000000
    y[2,2,1]  c82       -1000000
    y[2,2,1]  c101      -1000000
    y[2,2,1]  c102      -1000000
    y[2,2,1]  c111      -1000000
    y[2,2,1]  c112      -1000000
    y[2,2,1]  c115      -1000000
    y[2,2,1]  c116      -1000000
    y[2,2,1]  c119      -1000000
    y[2,2,1]  c120      -1000000
    y[2,2,1]  c156      -3
    y[2,2,1]  c164      -2
    y[2,2,3]  c8        1
    y[2,2,3]  c26       -1000000
    y[2,2,3]  c43       -1000000
    y[2,2,3]  c44       -1000000
    y[2,2,3]  c63       -1000000
    y[2,2,3]  c64       -1000000
    y[2,2,3]  c91       -1000000
    y[2,2,3]  c92       -1000000
    y[2,2,3]  c113      -1000000
    y[2,2,3]  c114      -1000000
    y[2,2,3]  c117      -1000000
    y[2,2,3]  c118      -1000000
    y[2,2,3]  c121      -1000000
    y[2,2,3]  c122      -1000000
    y[2,2,3]  c158      -3
    y[2,2,3]  c164      -5
    x[0,0,0,0]  OBJ       0
    x[0,0,0,1]  c27       -1000000
    x[0,0,0,1]  c28       1000000
    x[0,0,0,2]  c29       -1000000
    x[0,0,0,2]  c30       1000000
    x[0,0,1,0]  c31       -1000000
    x[0,0,1,0]  c32       1000000
    x[0,0,1,0]  c33       -1000000
    x[0,0,1,0]  c34       1000000
    x[0,0,1,1]  c35       -1000000
    x[0,0,1,1]  c36       1000000
    x[0,0,1,2]  c37       -1000000
    x[0,0,1,2]  c38       1000000
    x[0,0,2,0]  OBJ       0
    x[0,0,2,1]  c39       -1000000
    x[0,0,2,1]  c40       1000000
    x[0,0,2,1]  c41       -1000000
    x[0,0,2,1]  c42       1000000
    x[0,0,2,2]  c43       -1000000
    x[0,0,2,2]  c44       1000000
    x[0,1,0,0]  c45       -1000000
    x[0,1,0,0]  c46       1000000
    x[0,1,0,1]  OBJ       0
    x[0,1,0,2]  c47       -1000000
    x[0,1,0,2]  c48       1000000
    x[0,1,1,0]  c49       -1000000
    x[0,1,1,0]  c50       1000000
    x[0,1,1,1]  c51       -1000000
    x[0,1,1,1]  c52       1000000
    x[0,1,1,2]  c53       -1000000
    x[0,1,1,2]  c54       1000000
    x[0,1,1,2]  c55       -1000000
    x[0,1,1,2]  c56       1000000
    x[0,1,2,0]  c57       -1000000
    x[0,1,2,0]  c58       1000000
    x[0,1,2,1]  c59       -1000000
    x[0,1,2,1]  c60       1000000
    x[0,1,2,2]  c61       -1000000
    x[0,1,2,2]  c62       1000000
    x[0,1,2,2]  c63       -1000000
    x[0,1,2,2]  c64       1000000
    x[0,2,0,0]  c65       -1000000
    x[0,2,0,0]  c66       1000000
    x[0,2,0,1]  c67       -1000000
    x[0,2,0,1]  c68       1000000
    x[0,2,0,2]  OBJ       0
    x[0,2,1,0]  c69       -1000000
    x[0,2,1,0]  c70       1000000
    x[0,2,1,1]  c71       -1000000
    x[0,2,1,1]  c72       1000000
    x[0,2,1,1]  c73       -1000000
    x[0,2,1,1]  c74       1000000
    x[0,2,1,2]  c75       -1000000
    x[0,2,1,2]  c76       1000000
    x[0,2,2,0]  c77       -1000000
    x[0,2,2,0]  c78       1000000
    x[0,2,2,1]  c79       -1000000
    x[0,2,2,1]  c80       1000000
    x[0,2,2,2]  c81       -1000000
    x[0,2,2,2]  c82       1000000
    x[1,0,0,0]  OBJ       0
    x[1,0,0,1]  OBJ       0
    x[1,0,0,2]  OBJ       0
    x[1,0,1,0]  OBJ       0
    x[1,0,1,1]  c83       -1000000
    x[1,0,1,1]  c84       1000000
    x[1,0,1,2]  c85       -1000000
    x[1,0,1,2]  c86       1000000
    x[1,0,2,0]  OBJ       0
    x[1,0,2,1]  c87       -1000000
    x[1,0,2,1]  c88       1000000
    x[1,0,2,1]  c89       -1000000
    x[1,0,2,1]  c90       1000000
    x[1,0,2,2]  c91       -1000000
    x[1,0,2,2]  c92       1000000
    x[1,1,0,0]  OBJ       0
    x[1,1,0,1]  OBJ       0
    x[1,1,0,2]  OBJ       0
    x[1,1,1,0]  c93       -1000000
    x[1,1,1,0]  c94       1000000
    x[1,1,1,1]  OBJ       0
    x[1,1,1,2]  c95       -1000000
    x[1,1,1,2]  c96       1000000
    x[1,1,2,0]  c97       -1000000
    x[1,1,2,0]  c98       1000000
    x[1,1,2,1]  c99       -1000000
    x[1,1,2,1]  c100      1000000
    x[1,1,2,2]  c101      -1000000
    x[1,1,2,2]  c102      1000000
    x[1,2,0,0]  OBJ       0
    x[1,2,0,1]  OBJ       0
    x[1,2,0,2]  OBJ       0
    x[1,2,1,0]  c103      -1000000
    x[1,2,1,0]  c104      1000000
    x[1,2,1,1]  c105      -1000000
    x[1,2,1,1]  c106      1000000
    x[1,2,1,2]  OBJ       0
    x[1,2,2,0]  c107      -1000000
    x[1,2,2,0]  c108      1000000
    x[1,2,2,1]  c109      -1000000
    x[1,2,2,1]  c110      1000000
    x[1,2,2,2]  c111      -1000000
    x[1,2,2,2]  c112      1000000
    x[1,2,2,2]  c113      -1000000
    x[1,2,2,2]  c114      1000000
    x[2,0,0,0]  OBJ       0
    x[2,0,0,1]  OBJ       0
    x[2,0,0,2]  OBJ       0
    x[2,0,1,0]  OBJ       0
    x[2,0,1,1]  OBJ       0
    x[2,0,1,2]  OBJ       0
    x[2,0,2,0]  OBJ       0
    x[2,0,2,1]  OBJ       0
    x[2,0,2,2]  c115      -1000000
    x[2,0,2,2]  c116      1000000
    x[2,1,0,0]  OBJ       0
    x[2,1,0,1]  OBJ       0
    x[2,1,0,2]  OBJ       0
    x[2,1,1,0]  OBJ       0
    x[2,1,1,1]  OBJ       0
    x[2,1,1,2]  OBJ       0
    x[2,1,2,0]  OBJ       0
    x[2,1,2,1]  OBJ       0
    x[2,1,2,2]  c117      -1000000
    x[2,1,2,2]  c118      1000000
    x[2,2,0,0]  OBJ       0
    x[2,2,0,1]  OBJ       0
    x[2,2,0,2]  OBJ       0
    x[2,2,1,0]  OBJ       0
    x[2,2,1,1]  OBJ       0
    x[2,2,1,2]  OBJ       0
    x[2,2,2,0]  c119      -1000000
    x[2,2,2,0]  c120      1000000
    x[2,2,2,1]  c121      -1000000
    x[2,2,2,1]  c122      1000000
    x[2,2,2,2]  OBJ       0
    MARKER    'MARKER'                 'INTEND'
    s[0,0,2]  c9        1
    s[0,0,2]  c29       1
    s[0,0,2]  c30       -1
    s[0,0,2]  c31       1
    s[0,0,2]  c32       -1
    s[0,0,2]  c35       1
    s[0,0,2]  c36       -1
    s[0,0,2]  c39       1
    s[0,0,2]  c40       -1
    s[0,0,2]  c65       -1
    s[0,0,2]  c66       1
    s[0,0,2]  c123      1
    s[0,0,2]  c124      1
    s[0,0,2]  c159      1
    s[0,0,2]  c160      1
    s[0,0,2]  c165      -1
    s[0,0,3]  c10       1
    s[0,0,3]  c27       1
    s[0,0,3]  c28       -1
    s[0,0,3]  c33       1
    s[0,0,3]  c34       -1
    s[0,0,3]  c37       1
    s[0,0,3]  c38       -1
    s[0,0,3]  c41       1
    s[0,0,3]  c42       -1
    s[0,0,3]  c43       1
    s[0,0,3]  c44       -1
    s[0,0,3]  c45       -1
    s[0,0,3]  c46       1
    s[0,0,3]  c125      1
    s[0,0,3]  c126      1
    s[0,0,3]  c159      1
    s[0,0,3]  c160      1
    s[0,0,3]  c165      -1
    s[0,1,1]  c11       1
    s[0,1,1]  c47       1
    s[0,1,1]  c48       -1
    s[0,1,1]  c51       1
    s[0,1,1]  c52       -1
    s[0,1,1]  c53       1
    s[0,1,1]  c54       -1
    s[0,1,1]  c57       1
    s[0,1,1]  c58       -1
    s[0,1,1]  c61       1
    s[0,1,1]  c62       -1
    s[0,1,1]  c67       -1
    s[0,1,1]  c68       1
    s[0,1,1]  c127      1
    s[0,1,1]  c128      1
    s[0,1,1]  c159      -1
    s[0,1,3]  c12       1
    s[0,1,3]  c27       -1
    s[0,1,3]  c28       1
    s[0,1,3]  c45       1
    s[0,1,3]  c46       -1
    s[0,1,3]  c49       1
    s[0,1,3]  c50       -1
    s[0,1,3]  c55       1
    s[0,1,3]  c56       -1
    s[0,1,3]  c59       1
    s[0,1,3]  c60       -1
    s[0,1,3]  c63       1
    s[0,1,3]  c64       -1
    s[0,1,3]  c129      1
    s[0,1,3]  c130      1
    s[0,1,3]  c159      -1
    s[0,2,1]  c13       1
    s[0,2,1]  c47       -1
    s[0,2,1]  c48       1
    s[0,2,1]  c67       1
    s[0,2,1]  c68       -1
    s[0,2,1]  c71       1
    s[0,2,1]  c72       -1
    s[0,2,1]  c75       1
    s[0,2,1]  c76       -1
    s[0,2,1]  c77       1
    s[0,2,1]  c78       -1
    s[0,2,1]  c81       1
    s[0,2,1]  c82       -1
    s[0,2,1]  c131      1
    s[0,2,1]  c132      1
    s[0,2,1]  c160      -1
    s[0,2,2]  c14       1
    s[0,2,2]  c29       -1
    s[0,2,2]  c30       1
    s[0,2,2]  c65       1
    s[0,2,2]  c66       -1
    s[0,2,2]  c69       1
    s[0,2,2]  c70       -1
    s[0,2,2]  c73       1
    s[0,2,2]  c74       -1
    s[0,2,2]  c79       1
    s[0,2,2]  c80       -1
    s[0,2,2]  c133      1
    s[0,2,2]  c134      1
    s[0,2,2]  c160      -1
    s[1,0,2]  c15       1
    s[1,0,2]  c31       -1
    s[1,0,2]  c32       1
    s[1,0,2]  c69       -1
    s[1,0,2]  c70       1
    s[1,0,2]  c83       1
    s[1,0,2]  c84       -1
    s[1,0,2]  c87       1
    s[1,0,2]  c88       -1
    s[1,0,2]  c93       -1
    s[1,0,2]  c94       1
    s[1,0,2]  c135      1
    s[1,0,2]  c136      1
    s[1,0,2]  c161      1
    s[1,0,2]  c165      -1
    s[1,0,3]  c16       1
    s[1,0,3]  c33       -1
    s[1,0,3]  c34       1
    s[1,0,3]  c49       -1
    s[1,0,3]  c50       1
    s[1,0,3]  c85       1
    s[1,0,3]  c86       -1
    s[1,0,3]  c89       1
    s[1,0,3]  c90       -1
    s[1,0,3]  c91       1
    s[1,0,3]  c92       -1
    s[1,0,3]  c103      -1
    s[1,0,3]  c104      1
    s[1,0,3]  c137      1
    s[1,0,3]  c138      1
    s[1,0,3]  c161      1
    s[1,0,3]  c165      -1
    s[1,1,1]  c17       1
    s[1,1,1]  c51       -1
    s[1,1,1]  c52       1
    s[1,1,1]  c71       -1
    s[1,1,1]  c72       1
    s[1,1,1]  c95       1
    s[1,1,1]  c96       -1
    s[1,1,1]  c97       1
    s[1,1,1]  c98       -1
    s[1,1,1]  c101      1
    s[1,1,1]  c102      -1
    s[1,1,1]  c105      -1
    s[1,1,1]  c106      1
    s[1,1,1]  c139      1
    s[1,1,1]  c140      1
    s[1,1,1]  c161      -1
    s[1,1,1]  c162      1
    s[1,1,2]  c18       1
    s[1,1,2]  c35       -1
    s[1,1,2]  c36       1
    s[1,1,2]  c73       -1
    s[1,1,2]  c74       1
    s[1,1,2]  c83       -1
    s[1,1,2]  c84       1
    s[1,1,2]  c93       1
    s[1,1,2]  c94       -1
    s[1,1,2]  c99       1
    s[1,1,2]  c100      -1
    s[1,1,2]  c141      1
    s[1,1,2]  c142      1
    s[1,1,2]  c161      -1
    s[1,1,2]  c162      1
    s[1,2,1]  c19       1
    s[1,2,1]  c53       -1
    s[1,2,1]  c54       1
    s[1,2,1]  c75       -1
    s[1,2,1]  c76       1
    s[1,2,1]  c95       -1
    s[1,2,1]  c96       1
    s[1,2,1]  c105      1
    s[1,2,1]  c106      -1
    s[1,2,1]  c107      1
    s[1,2,1]  c108      -1
    s[1,2,1]  c111      1
    s[1,2,1]  c112      -1
    s[1,2,1]  c143      1
    s[1,2,1]  c144      1
    s[1,2,1]  c162      -1
    s[1,2,3]  c20       1
    s[1,2,3]  c37       -1
    s[1,2,3]  c38       1
    s[1,2,3]  c55       -1
    s[1,2,3]  c56       1
    s[1,2,3]  c85       -1
    s[1,2,3]  c86       1
    s[1,2,3]  c103      1
    s[1,2,3]  c104      -1
    s[1,2,3]  c109      1
    s[1,2,3]  c110      -1
    s[1,2,3]  c113      1
    s[1,2,3]  c114      -1
    s[1,2,3]  c145      1
    s[1,2,3]  c146      1
    s[1,2,3]  c162      -1
    s[2,0,0]  c21       1
    s[2,0,0]  c147      1
    s[2,0,0]  c148      1
    s[2,0,0]  c164      1
    s[2,0,0]  c165      -1
    s[2,0,1]  c22       1
    s[2,0,1]  c57       -1
    s[2,0,1]  c58       1
    s[2,0,1]  c77       -1
    s[2,0,1]  c78       1
    s[2,0,1]  c97       -1
    s[2,0,1]  c98       1
    s[2,0,1]  c107      -1
    s[2,0,1]  c108      1
    s[2,0,1]  c115      1
    s[2,0,1]  c116      -1
    s[2,0,1]  c119      -1
    s[2,0,1]  c120      1
    s[2,0,1]  c149      1
    s[2,0,1]  c150      1
    s[2,0,1]  c164      1
    s[2,0,1]  c165      -1
    s[2,1,2]  c23       1
    s[2,1,2]  c39       -1
    s[2,1,2]  c40       1
    s[2,1,2]  c79       -1
    s[2,1,2]  c80       1
    s[2,1,2]  c87       -1
    s[2,1,2]  c88       1
    s[2,1,2]  c99       -1
    s[2,1,2]  c100      1
    s[2,1,2]  c151      1
    s[2,1,2]  c152      1
    s[2,1,2]  c163      -1
    s[2,1,3]  c24       1
    s[2,1,3]  c41       -1
    s[2,1,3]  c42       1
    s[2,1,3]  c59       -1
    s[2,1,3]  c60       1
    s[2,1,3]  c89       -1
    s[2,1,3]  c90       1
    s[2,1,3]  c109      -1
    s[2,1,3]  c110      1
    s[2,1,3]  c117      1
    s[2,1,3]  c118      -1
    s[2,1,3]  c121      -1
    s[2,1,3]  c122      1
    s[2,1,3]  c153      1
    s[2,1,3]  c154      1
    s[2,1,3]  c163      -1
    s[2,2,1]  c25       1
    s[2,2,1]  c61       -1
    s[2,2,1]  c62       1
    s[2,2,1]  c81       -1
    s[2,2,1]  c82       1
    s[2,2,1]  c101      -1
    s[2,2,1]  c102      1
    s[2,2,1]  c111      -1
    s[2,2,1]  c112      1
    s[2,2,1]  c115      -1
    s[2,2,1]  c116      1
    s[2,2,1]  c119      1
    s[2,2,1]  c120      -1
    s[2,2,1]  c155      1
    s[2,2,1]  c156      1
    s[2,2,1]  c163      1
    s[2,2,1]  c164      -1
    s[2,2,3]  c26       1
    s[2,2,3]  c43       -1
    s[2,2,3]  c44       1
    s[2,2,3]  c63       -1
    s[2,2,3]  c64       1
    s[2,2,3]  c91       -1
    s[2,2,3]  c92       1
    s[2,2,3]  c113      -1
    s[2,2,3]  c114      1
    s[2,2,3]  c117      -1
    s[2,2,3]  c118      1
    s[2,2,3]  c121      1
    s[2,2,3]  c122      -1
    s[2,2,3]  c157      1
    s[2,2,3]  c158      1
    s[2,2,3]  c163      1
    s[2,2,3]  c164      -1
    MARKER    'MARKER'                 'INTORG'
    Z_FO      OBJ       1
    Z_FO      c165      1
    MARKER    'MARKER'                 'INTEND'
RHS
    RHS1      c0        1
    RHS1      c1        1
    RHS1      c2        1
    RHS1      c3        1
    RHS1      c4        1
    RHS1      c5        1
    RHS1      c6        1
    RHS1      c7        1
    RHS1      c8        1
    RHS1      c27       -2999976
    RHS1      c28       -1999992
    RHS1      c29       -2999983
    RHS1      c30       -1999992
    RHS1      c31       -2999980
    RHS1      c32       -1999973
    RHS1      c33       -2999994
    RHS1      c34       -1999996
    RHS1      c35       -2999991
    RHS1      c36       -1999983
    RHS1      c37       -2999984
    RHS1      c38       -1999994
    RHS1      c39       -2999990
    RHS1      c40       -1999978
    RHS1      c41       -2999992
    RHS1      c42       -1999994
    RHS1      c43       -2999975
    RHS1      c44       -1999983
    RHS1      c45       -2999992
    RHS1      c46       -1999976
    RHS1      c47       -2999986
    RHS1      c48       -1999986
    RHS1      c49       -2999990
    RHS1      c50       -1999987
    RHS1      c51       -2999992
    RHS1      c52       -1999989
    RHS1      c53       -2999991
    RHS1      c54       -1999991
    RHS1      c55       -2999990
    RHS1      c56       -1999988
    RHS1      c57       -2999992
    RHS1      c58       -1999992
    RHS1      c59       -2999986
    RHS1      c60       -1999992
    RHS1      c61       -2999988
    RHS1      c62       -1999990
    RHS1      c63       -2999990
    RHS1      c64       -1999976
    RHS1      c65       -2999992
    RHS1      c66       -1999983
    RHS1      c67       -2999986
    RHS1      c68       -1999986
    RHS1      c69       -2999993
    RHS1      c70       -1999992
    RHS1      c71       -2999987
    RHS1      c72       -1999990
    RHS1      c73       -2999989
    RHS1      c74       -1999982
    RHS1      c75       -2999983
    RHS1      c76       -1999990
    RHS1      c77       -2999978
    RHS1      c78       -1999992
    RHS1      c79       -2999992
    RHS1      c80       -1999995
    RHS1      c81       -2999986
    RHS1      c82       -1999987
    RHS1      c83       -2999991
    RHS1      c84       -1999987
    RHS1      c85       -2999991
    RHS1      c86       -1999990
    RHS1      c87       -2999978
    RHS1      c88       -1999993
    RHS1      c89       -2999970
    RHS1      c90       -1999990
    RHS1      c91       -2999987
    RHS1      c92       -1999991
    RHS1      c93       -2999987
    RHS1      c94       -1999991
    RHS1      c95       -2999991
    RHS1      c96       -1999992
    RHS1      c97       -2999992
    RHS1      c98       -1999995
    RHS1      c99       -2999993
    RHS1      c100      -1999983
    RHS1      c101      -2999986
    RHS1      c102      -1999985
    RHS1      c103      -2999990
    RHS1      c104      -1999991
    RHS1      c105      -2999992
    RHS1      c106      -1999991
    RHS1      c107      -2999982
    RHS1      c108      -1999980
    RHS1      c109      -2999970
    RHS1      c110      -1999987
    RHS1      c111      -2999988
    RHS1      c112      -1999985
    RHS1      c113      -2999991
    RHS1      c114      -1999988
    RHS1      c115      -2999978
    RHS1      c116      -1999983
    RHS1      c117      -2999989
    RHS1      c118      -1999986
    RHS1      c119      -2999983
    RHS1      c120      -1999978
    RHS1      c121      -2999986
    RHS1      c122      -1999989
BOUNDS
 BV BND1      y[0,0,2]
 BV BND1      y[0,0,3]
 BV BND1      y[0,1,1]
 BV BND1      y[0,1,3]
 BV BND1      y[0,2,1]
 BV BND1      y[0,2,2]
 BV BND1      y[1,0,2]
 BV BND1      y[1,0,3]
 BV BND1      y[1,1,1]
 BV BND1      y[1,1,2]
 BV BND1      y[1,2,1]
 BV BND1      y[1,2,3]
 BV BND1      y[2,0,0]
 BV BND1      y[2,0,1]
 BV BND1      y[2,1,2]
 BV BND1      y[2,1,3]
 BV BND1      y[2,2,1]
 BV BND1      y[2,2,3]
 BV BND1      x[0,0,0,0]
 BV BND1      x[0,0,0,1]
 BV BND1      x[0,0,0,2]
 BV BND1      x[0,0,1,0]
 BV BND1      x[0,0,1,1]
 BV BND1      x[0,0,1,2]
 BV BND1      x[0,0,2,0]
 BV BND1      x[0,0,2,1]
 BV BND1      x[0,0,2,2]
 BV BND1      x[0,1,0,0]
 BV BND1      x[0,1,0,1]
 BV BND1      x[0,1,0,2]
 BV BND1      x[0,1,1,0]
 BV BND1      x[0,1,1,1]
 BV BND1      x[0,1,1,2]
 BV BND1      x[0,1,2,0]
 BV BND1      x[0,1,2,1]
 BV BND1      x[0,1,2,2]
 BV BND1      x[0,2,0,0]
 BV BND1      x[0,2,0,1]
 BV BND1      x[0,2,0,2]
 BV BND1      x[0,2,1,0]
 BV BND1      x[0,2,1,1]
 BV BND1      x[0,2,1,2]
 BV BND1      x[0,2,2,0]
 BV BND1      x[0,2,2,1]
 BV BND1      x[0,2,2,2]
 BV BND1      x[1,0,0,0]
 BV BND1      x[1,0,0,1]
 BV BND1      x[1,0,0,2]
 BV BND1      x[1,0,1,0]
 BV BND1      x[1,0,1,1]
 BV BND1      x[1,0,1,2]
 BV BND1      x[1,0,2,0]
 BV BND1      x[1,0,2,1]
 BV BND1      x[1,0,2,2]
 BV BND1      x[1,1,0,0]
 BV BND1      x[1,1,0,1]
 BV BND1      x[1,1,0,2]
 BV BND1      x[1,1,1,0]
 BV BND1      x[1,1,1,1]
 BV BND1      x[1,1,1,2]
 BV BND1      x[1,1,2,0]
 BV BND1      x[1,1,2,1]
 BV BND1      x[1,1,2,2]
 BV BND1      x[1,2,0,0]
 BV BND1      x[1,2,0,1]
 BV BND1      x[1,2,0,2]
 BV BND1      x[1,2,1,0]
 BV BND1      x[1,2,1,1]
 BV BND1      x[1,2,1,2]
 BV BND1      x[1,2,2,0]
 BV BND1      x[1,2,2,1]
 BV BND1      x[1,2,2,2]
 BV BND1      x[2,0,0,0]
 BV BND1      x[2,0,0,1]
 BV BND1      x[2,0,0,2]
 BV BND1      x[2,0,1,0]
 BV BND1      x[2,0,1,1]
 BV BND1      x[2,0,1,2]
 BV BND1      x[2,0,2,0]
 BV BND1      x[2,0,2,1]
 BV BND1      x[2,0,2,2]
 BV BND1      x[2,1,0,0]
 BV BND1      x[2,1,0,1]
 BV BND1      x[2,1,0,2]
 BV BND1      x[2,1,1,0]
 BV BND1      x[2,1,1,1]
 BV BND1      x[2,1,1,2]
 BV BND1      x[2,1,2,0]
 BV BND1      x[2,1,2,1]
 BV BND1      x[2,1,2,2]
 BV BND1      x[2,2,0,0]
 BV BND1      x[2,2,0,1]
 BV BND1      x[2,2,0,2]
 BV BND1      x[2,2,1,0]
 BV BND1      x[2,2,1,1]
 BV BND1      x[2,2,1,2]
 BV BND1      x[2,2,2,0]
 BV BND1      x[2,2,2,1]
 BV BND1      x[2,2,2,2]
 LI BND1      Z_FO      0
ENDATA
